certificates/rado_a11_c86_N21.cnf
c Rad2 upper bound instance: x1 + 11*x2 - x3 = 86, interval [1,21]
p cnf 21 80
1 3 8 0
-1 -3 -8 0
1 9 14 0
-1 -9 -14 0
2 4 8 0
-2 -4 -8 0
2 9 15 0
-2 -9 -15 0
3 5 8 0
-3 -5 -8 0
3 9 16 0
-3 -9 -16 0
4 6 8 0
-4 -6 -8 0
4 9 17 0
-4 -9 -17 0
5 7 8 0
-5 -7 -8 0
5 9 18 0
-5 -9 -18 0
6 8 0
-6 -8 0
6 9 19 0
-6 -9 -19 0
7 8 9 0
-7 -8 -9 0
7 9 20 0
-7 -9 -20 0
8 10 0
-8 -10 0
8 9 21 0
-8 -9 -21 0
8 9 11 0
-8 -9 -11 0
1 7 10 0
-1 -7 -10 0
8 10 12 0
-8 -10 -12 0
2 7 11 0
-2 -7 -11 0
8 11 13 0
-8 -11 -13 0
3 7 12 0
-3 -7 -12 0
8 12 14 0
-8 -12 -14 0
4 7 13 0
-4 -7 -13 0
8 13 15 0
-8 -13 -15 0
5 7 14 0
-5 -7 -14 0
8 14 16 0
-8 -14 -16 0
6 7 15 0
-6 -7 -15 0
8 15 17 0
-8 -15 -17 0
7 16 0
-7 -16 0
8 16 18 0
-8 -16 -18 0
7 8 17 0
-7 -8 -17 0
8 17 19 0
-8 -17 -19 0
7 9 18 0
-7 -9 -18 0
8 18 20 0
-8 -18 -20 0
7 10 19 0
-7 -10 -19 0
8 19 21 0
-8 -19 -21 0
7 11 20 0
-7 -11 -20 0
1 6 21 0
-1 -6 -21 0
7 12 21 0
-7 -12 -21 0
