certificates/rado_a11_c86_N21.drat
-19 -21 0
d -19 -8 -21 0
9 8 -20 0
8 -20 -21 0
-8 -21 0
9 -21 0
-21 0
8 -9 0
-9 0
8 0
-6 0
-10 0
1 0
19 0
-3 0
-17 0
16 0
4 0
-7 0
-18 0
-14 0
-2 0
20 0
15 0
0
